rectOffsets = 
    [|0,0,9,24|0,0,24,9|0,0,9,8|0,0,8,9|0,0,9,11|0,0,11,9|0,0,9,17|0,0,17,9|0,0,4,24|0,0,24,4|0,0,4,8|0,0,8,4|0,0,1,6|0,0,6,1|0,0,1,5|0,0,5,1|0,0,4,17|0,0,17,4|0,0,3,6|0,0,6,3|0,0,3,5|0,0,5,3|0,0,12,5|0,0,5,12|0,0,12,13|0,0,13,12|0,0,14,14|0,0,14,14|0,0,2,14|0,0,14,2|0,0,2,2|0,0,2,2|0,0,8,3|0,0,3,8|0,0,8,9|0,0,9,8|0,0,12,14|0,0,14,12|0,0,12,2|0,0,2,12|0,0,6,3|0,0,3,6|0,0,6,9|0,0,9,6|0,0,2,5|0,0,5,2|0,0,2,13|0,0,13,2|0,0,3,18|0,0,18,3|0,0,3,14|0,0,14,3|0,0,3,16|0,0,16,3|0,0,3,12|0,0,12,3|];

shape = array1d(1..56, [{1}, {2}, {3}, {4}, {5}, {6}, {7}, {8}, {9}, {10},
    {11}, {12}, {13}, {14}, {15}, {16}, {17}, {18}, {19}, {20}, {21},
    {22}, {23}, {24}, {25}, {26}, {27}, {28}, {29}, {30}, {31}, {32},
    {33}, {34}, {35}, {36}, {37}, {38}, {39}, {40}, {41}, {42}, {43},
    {44}, {45}, {46}, {47}, {48}, {49}, {50}, {51}, {52}, {53}, {54},
    {55}, {56}]);

validshapes = array1d(1..28, [{1,2}, {3,4}, {5,6}, {7,8}, {9,10}, {11,12}, {13,14},
    {15,16}, {17,18}, {19,20}, {21,22}, {23,24}, {25,26}, {27,28},
    {29,30}, {31,32}, {33,34}, {35,36}, {37,38}, {39,40}, {41,42},
    {43,44}, {45,46}, {47,48}, {49,50}, {51,52}, {53,54}, {55,56}]);

dx = array1d(1..28, [9, 9, 9, 9, 4, 4, 1, 1, 4, 3, 3, 12, 12, 14, 2, 2, 8,
    8, 12, 12, 6, 6, 2, 2, 3, 3, 3, 3]);

dy = array1d(1..28, [24, 8, 11, 17, 24, 8, 6, 5, 17, 6, 5, 5, 13, 14, 14,
    2, 3, 9, 14, 2, 3, 9, 5, 13, 18, 14, 16, 12]);

w = 30;

n = 28;

o = 56;

